data/instances/vrp_files/train_30.vrp
NAME : 30
COMMENT : Generated instance No. 30
TYPE : CVRP
DIMENSION : 21
EDGE_WEIGHT_TYPE : EUC_2D
CAPACITY : 30
NODE_COORD_SECTION
 1 315 688
 2 886 449
 3 194 367
 4 414 827
 5 733 769
 6 11 416
 7 481 19
 8 259 760
 9 137 535
 10 215 12
 11 241 975
 12 801 959
 13 487 109
 14 547 454
 15 844 98
 16 488 150
 17 324 737
 18 476 375
 19 394 459
 20 785 892
 21 955 786
DEMAND_SECTION
1 0
2 1
3 10
4 2
5 10
6 8
7 5
8 7
9 2
10 8
11 6
12 8
13 1
14 1
15 7
16 8
17 3
18 5
19 1
20 7
21 5
DEPOT_SECTION
 1
 -1
EOF